2025-10-20 23:11:00,893 - INFO - 📌 第一个 epoch：默认所有模块使用 checkpoint
2025-10-20 23:11:04,923 - INFO - Epoch 1 completed in 4.037831 seconds
2025-10-20 23:11:06,149 - INFO - torch.cuda.max_memory_reserved() : 4.37890625
2025-10-20 23:11:09,369 - INFO - 
[🔁 拟合反向传播时间模型]
2025-10-20 23:11:09,369 - INFO - 总反向传播时间: 3.200239s
2025-10-20 23:11:09,369 - INFO - 拟合模型: backward_total ≈ 2 × (A + B) + b
2025-10-20 23:11:09,370 - INFO - A = 2.503161, B = 0.261878, b = 0.435200s
2025-10-20 23:11:09,413 - INFO - Set parameter LicenseID to value 2706656
2025-10-20 23:11:09,421 - INFO - Set parameter LogToConsole to value 1
2025-10-20 23:11:09,421 - INFO - Set parameter LogFile to value ""
2025-10-20 23:11:09,421 - INFO - Set parameter Threads to value 12
2025-10-20 23:11:09,421 - INFO - Set parameter TimeLimit to value 3600
2025-10-20 23:11:09,421 - INFO - Set parameter OptimalityTol to value 0.0001
2025-10-20 23:11:09,421 - INFO - Set parameter IntFeasTol to value 1e-05
2025-10-20 23:11:09,421 - INFO - Set parameter StartNodeLimit to value 10000000
2025-10-20 23:11:09,517 - INFO - Set parameter TimeLimit to value 3600
2025-10-20 23:11:09,517 - INFO - 
2025-10-20 23:11:09,517 - INFO - 
2025-10-20 23:11:09,517 - INFO - Restarting solve
2025-10-20 23:11:09,517 - INFO - 
2025-10-20 23:11:09,517 - INFO - 
2025-10-20 23:11:09,521 - INFO - Gurobi Optimizer version 12.0.3 build v12.0.3rc0 (linux64 - "Ubuntu 20.04.6 LTS")
2025-10-20 23:11:09,521 - INFO - 
2025-10-20 23:11:09,521 - INFO - CPU model: Intel(R) Xeon(R) Platinum 8260 CPU @ 2.40GHz, instruction set [SSE2|AVX|AVX2|AVX512]
2025-10-20 23:11:09,521 - INFO - Thread count: 48 physical cores, 96 logical processors, using up to 12 threads
2025-10-20 23:11:09,521 - INFO - 
2025-10-20 23:11:09,521 - INFO - Non-default parameters:
2025-10-20 23:11:09,521 - INFO - TimeLimit  3600
2025-10-20 23:11:09,521 - INFO - OptimalityTol  0.0001
2025-10-20 23:11:09,521 - INFO - StartNodeLimit  10000000
2025-10-20 23:11:09,522 - INFO - Threads  12
2025-10-20 23:11:09,522 - INFO - 
2025-10-20 23:11:09,522 - INFO - Optimize a model with 5603 rows, 3584 columns and 15200 nonzeros
2025-10-20 23:11:09,522 - INFO - Model fingerprint: 0x585baf0e
2025-10-20 23:11:09,522 - INFO - Variable types: 1024 continuous, 2560 integer (2560 binary)
2025-10-20 23:11:09,522 - INFO - Coefficient statistics:
2025-10-20 23:11:09,522 - INFO -   Matrix range     [1e+00, 2e+15]
2025-10-20 23:11:09,522 - INFO -   Objective range  [8e+04, 6e+05]
2025-10-20 23:11:09,522 - INFO -   Bounds range     [1e+00, 2e+15]
2025-10-20 23:11:09,522 - INFO -   RHS range        [1e+00, 2e+15]
2025-10-20 23:11:09,523 - INFO - Warning: Model contains large matrix coefficient range
2025-10-20 23:11:09,523 - INFO - Warning: Model contains large rhs
2025-10-20 23:11:09,523 - INFO - Warning: Model contains large bounds
2025-10-20 23:11:09,523 - INFO -          Consider reformulating model or setting NumericFocus parameter
2025-10-20 23:11:09,523 - INFO -          to avoid numerical issues.
2025-10-20 23:11:09,538 - INFO - Presolve removed 4281 rows and 1972 columns
2025-10-20 23:11:09,538 - INFO - Presolve time: 0.01s
2025-10-20 23:11:09,538 - INFO - 
2025-10-20 23:11:09,538 - INFO - Explored 0 nodes (0 simplex iterations) in 0.02 seconds (0.01 work units)
2025-10-20 23:11:09,538 - INFO - Thread count was 1 (of 96 available processors)
2025-10-20 23:11:09,538 - INFO - 
2025-10-20 23:11:09,538 - INFO - Solution count 0
2025-10-20 23:11:09,538 - INFO - 
2025-10-20 23:11:09,538 - INFO - Model is infeasible
2025-10-20 23:11:09,539 - INFO - Best objective -, best bound -, gap -
2025-10-20 23:11:09,539 - ERROR - Infeasible model, check constraints carefully. Insufficient memory?
Traceback (most recent call last):
  File "/data/user_lixiongfei/csl_hyc/solver/checkmate_solver.py", line 356, in solve_ilp_gurobi
    solution = ilpsolver.solve()
  File "/data/user_lixiongfei/csl_hyc/solver/checkmate_solver.py", line 268, in solve
    raise ValueError("Infeasible model, check constraints carefully. Insufficient memory?")
ValueError: Infeasible model, check constraints carefully. Insufficient memory?
2025-10-21 10:02:19,443 - INFO - 📌 第一个 epoch：默认所有模块使用 checkpoint
2025-10-21 10:02:22,782 - INFO - Epoch 1 completed in 3.345417 seconds
2025-10-21 10:02:23,848 - INFO - torch.cuda.max_memory_reserved() : 4.37890625
2025-10-21 10:02:26,672 - INFO - 
[🔁 拟合反向传播时间模型]
2025-10-21 10:02:26,673 - INFO - 总反向传播时间: 2.801328s
2025-10-21 10:02:26,673 - INFO - 拟合模型: backward_total ≈ 2 × (A + B) + b
2025-10-21 10:02:26,673 - INFO - A = 2.071382, B = 0.202369, b = 0.527577s
2025-10-21 10:02:26,696 - INFO - Set parameter LicenseID to value 2706656
2025-10-21 10:02:26,702 - INFO - Set parameter LogToConsole to value 1
2025-10-21 10:02:26,702 - INFO - Set parameter LogFile to value ""
2025-10-21 10:02:26,702 - INFO - Set parameter Threads to value 12
2025-10-21 10:02:26,702 - INFO - Set parameter TimeLimit to value 3600
2025-10-21 10:02:26,702 - INFO - Set parameter OptimalityTol to value 0.0001
2025-10-21 10:02:26,702 - INFO - Set parameter IntFeasTol to value 1e-05
2025-10-21 10:02:26,702 - INFO - Set parameter StartNodeLimit to value 10000000
2025-10-21 10:02:26,754 - INFO - Set parameter TimeLimit to value 3600
2025-10-21 10:02:26,754 - INFO - 
2025-10-21 10:02:26,754 - INFO - 
2025-10-21 10:02:26,754 - INFO - Restarting solve
2025-10-21 10:02:26,754 - INFO - 
2025-10-21 10:02:26,754 - INFO - 
2025-10-21 10:02:26,756 - INFO - Gurobi Optimizer version 12.0.3 build v12.0.3rc0 (linux64 - "Ubuntu 20.04.6 LTS")
2025-10-21 10:02:26,756 - INFO - 
2025-10-21 10:02:26,756 - INFO - CPU model: Intel(R) Xeon(R) Platinum 8260 CPU @ 2.40GHz, instruction set [SSE2|AVX|AVX2|AVX512]
2025-10-21 10:02:26,756 - INFO - Thread count: 48 physical cores, 96 logical processors, using up to 12 threads
2025-10-21 10:02:26,756 - INFO - 
2025-10-21 10:02:26,756 - INFO - Non-default parameters:
2025-10-21 10:02:26,756 - INFO - TimeLimit  3600
2025-10-21 10:02:26,756 - INFO - OptimalityTol  0.0001
2025-10-21 10:02:26,756 - INFO - StartNodeLimit  10000000
2025-10-21 10:02:26,756 - INFO - Threads  12
2025-10-21 10:02:26,756 - INFO - 
2025-10-21 10:02:26,756 - INFO - Optimize a model with 5603 rows, 3584 columns and 15200 nonzeros
2025-10-21 10:02:26,756 - INFO - Model fingerprint: 0x6d718785
2025-10-21 10:02:26,757 - INFO - Variable types: 1024 continuous, 2560 integer (2560 binary)
2025-10-21 10:02:26,757 - INFO - Coefficient statistics:
2025-10-21 10:02:26,757 - INFO -   Matrix range     [1e+00, 2e+15]
2025-10-21 10:02:26,757 - INFO -   Objective range  [6e+04, 5e+05]
2025-10-21 10:02:26,757 - INFO -   Bounds range     [1e+00, 2e+15]
2025-10-21 10:02:26,757 - INFO -   RHS range        [1e+00, 2e+15]
2025-10-21 10:02:26,757 - INFO - Warning: Model contains large matrix coefficient range
2025-10-21 10:02:26,757 - INFO - Warning: Model contains large rhs
2025-10-21 10:02:26,757 - INFO - Warning: Model contains large bounds
2025-10-21 10:02:26,757 - INFO -          Consider reformulating model or setting NumericFocus parameter
2025-10-21 10:02:26,757 - INFO -          to avoid numerical issues.
2025-10-21 10:02:26,765 - INFO - Presolve removed 4281 rows and 1972 columns
2025-10-21 10:02:26,765 - INFO - Presolve time: 0.01s
2025-10-21 10:02:26,765 - INFO - 
2025-10-21 10:02:26,765 - INFO - Explored 0 nodes (0 simplex iterations) in 0.01 seconds (0.01 work units)
2025-10-21 10:02:26,765 - INFO - Thread count was 1 (of 96 available processors)
2025-10-21 10:02:26,765 - INFO - 
2025-10-21 10:02:26,765 - INFO - Solution count 0
2025-10-21 10:02:26,765 - INFO - 
2025-10-21 10:02:26,765 - INFO - Model is infeasible
2025-10-21 10:02:26,765 - INFO - Best objective -, best bound -, gap -
2025-10-21 10:02:26,765 - ERROR - Infeasible model, check constraints carefully. Insufficient memory?
Traceback (most recent call last):
  File "/data/user_lixiongfei/csl_hyc/solver/checkmate_solver.py", line 356, in solve_ilp_gurobi
    solution = ilpsolver.solve()
  File "/data/user_lixiongfei/csl_hyc/solver/checkmate_solver.py", line 268, in solve
    raise ValueError("Infeasible model, check constraints carefully. Insufficient memory?")
ValueError: Infeasible model, check constraints carefully. Insufficient memory?
